\ENCODING=ISO-8859-1
\Problem name: instances

Maximize
 obj:
Subject To
 c1: 47 x1 + 27 x2 + 87 x3 + 4 x4 + 52 x5 + 59 x6 + 85 x7 + 29 x8 + 51 x9
     + 43 x10 <= 452
 c2: 79 x1 + 64 x2 + 16 x3 + 67 x4 + 77 x5 + 74 x6 + 27 x7 + 48 x8 + 8 x10
     <= 330
 c3: 67 x1 + 21 x2 - 30 x3 + 56 x4 + 30 x5 + 31 x6 - 98 x7 + 57 x8 + 23 x10
     <= 126
 c4: 78 x1 + 50 x3 + 18 x4 + 89 x5 + 26 x6 + 92 x7 + 47 x8 + 39 x9 + 53 x10
     <= 312
 c5: x1 + 70 x2 - 87 x3 + 21 x4 + 49 x5 + 55 x6 + 85 x7 + 21 x8 + 41 x9
     + 25 x10 <= 219
Bounds
      x1 >= 0
      x2 >= 0
      x3 >= 0
      x4 >= 0
      x5 >= 0
      x6 >= 0
      x7 >= 0
      x8 >= 0
      x9 >= 0
      x10 >= 0
Generals
 x1  x2  x3  x4  x5  x6  x7  x8  x9  x10 
End
